Route #1: 24 4 104 177 64 117 34 132 143 153 166 152 124
Route #2: 40 101 96 174 178 113 79 156 142 114 52 87
Route #3: 60 26 107 69 159 77 9 183 182 93 30 2 28
Route #4: 97 102 139 122 151 98 89 27 84 99 12 129
Route #5: 127 167 56 62 57 46 76 146 169 137 125 120 123
Route #6: 111 38 41 43 181 53 154 164 121 22 88 42 67
Route #7: 171 85 173 126 49 140 33 119 8 73 158 14
Route #8: 184 71 135 66 20 112 54 94 11 180 35 19 16
Route #9: 108 170 175 74 128 82 39 91 45 168 162 5
Route #10: 65 50 92 44 138 21 147 55 48 179 70 63 148 165
Route #11: 86 72 18 116 103 163 144 1 90 7 131 185 130 37 59
Route #12: 100 115 118 36 61 157 17 80 110 149 3 161
Route #13: 145 136 51 83 134 78 75 81 106 150 29 95
Route #14: 13 176 58 155 68 172
Route #15: 15 31 32 23 105 109 25 160 133 6 10 141 47
Cost 24173.000000